nbGenes = 10;
preference = [[0 52 31 14 58 17 72 33 36 32 ]
[48 0 82 62 45 97 68 56 21 46 ]
[69 18 0 83 40 64 39 78 44 68 ]
[86 38 17 0 97 35 10 39 84 35 ]
[42 55 60 3 0 20 34 62 63 73 ]
[83 3 36 65 80 0 66 41 62 71 ]
[28 32 61 90 66 34 0 52 37 1 ]
[67 44 22 61 38 59 48 0 42 67 ]
[64 79 56 16 37 38 63 58 0 79 ]
[68 54 32 65 27 29 99 33 21 0 ]
];
